problem_generation/data/GISP/train/er_n=68_m=1360_p=0.60_SET2_setparam=100.00_alpha=0.50_826.lp
maximize
OBJ:100x0 + 100x1 + 100x2 + 100x3 + 100x4 + 100x5 + 100x6 + 100x7 + 100x8 + 100x9 + 100x10 + 100x11 + 100x12 + 100x13 + 100x14 + 100x15 + 100x16 + 100x17 + 100x18 + 100x19 + 100x20 + 100x21 + 100x22 + 100x23 + 100x24 + 100x25 + 100x26 + 100x27 + 100x28 + 100x29 + 100x30 + 100x31 + 100x32 + 100x33 + 100x34 + 100x35 + 100x36 + 100x37 + 100x38 + 100x39 + 100x40 + 100x41 + 100x42 + 100x43 + 100x44 + 100x45 + 100x46 + 100x47 + 100x48 + 100x49 + 100x50 + 100x51 + 100x52 + 100x53 + 100x54 + 100x55 + 100x56 + 100x57 + 100x58 + 100x59 + 100x60 + 100x61 + 100x62 + 100x63 + 100x64 + 100x65 + 100x66 + 100x67 - y36_53 - y55_66 - y47_62 - y26_39 - y7_35 - y18_35 - y5_65 - y8_9 - y0_5 - y29_41 - y8_18 - y21_37 - y40_41 - y29_59 - y40_59 - y21_55 - y21_64 - y10_27 - y10_36 - y41_51 - y25_34 - y10_45 - y33_47 - y2_41 - y3_6 - y33_56 - y2_50 - y3_15 - y22_28 - y2_59 - y25_61 - y32_60 - y43_60 - y15_25 - y55_61 - y47_57 - y9_58 - y29_36 - y6_52 - y29_63 - y10_22 - y10_40 - y10_49 - y25_47 - y10_58 - y51_59 - y2_54 - y32_55 - y13_51 - y32_64 - y13_60 - y24_60 - y14_37 - y55_56 - y7_16 - y36_52 - y28_48 - y17_57 - y28_57 - y29_31 - y6_38 - y48_53 - y21_36 - y29_49 - y6_56 - y21_54 - y2_22 - y54_60 - y20_67 - y12_63 - y25_42 - y51_54 - y13_46 - y43_59 - y1_53 - y13_55 - y35_55 - y17_25 - y36_47 - y5_41 - y6_15 - y17_61 - y50_67 - y61_67 - y6_42 - y10_21 - y20_62 - y31_62 - y12_58 - y23_58 - y12_67 - y3_9 - y4_63 - y3_18 - y32_54 - y43_54 - y1_48 - y13_50 - y35_50 - y43_63 - y1_57 - y13_59 - y17_20 - y16_64 - y28_29 - y9_25 - y28_38 - y6_19 - y50_53 - y9_61 - y42_58 - y6_46 - y39_43 - y12_53 - y2_30 - y4_49 - y12_62 - y13_27 - y24_27 - y35_36 - y32_49 - y43_49 - y1_43 - y43_58 - y1_52 - y24_63 - y5_22 - y57_60 - y9_20 - y5_31 - y17_33 - y3_47 - y9_29 - y28_33 - y5_40 - y5_58 - y8_51 - y42_53 - y19_60 - y2_7 - y20_43 - y12_39 - y23_39 - y54_63 - y4_44 - y23_57 - y23_66 - y1_29 - y16_36 - y24_49 - y5_8 - y1_56 - y35_58 - y16_54 - y46_55 - y49_51 - y17_37 - y9_33 - y26_67 - y27_50 - y30_46 - y20_29 - y0_60 - y20_38 - y31_38 - y2_11 - y4_30 - y31_47 - y20_56 - y31_56 - y1_15 - y13_17 - y4_48 - y23_61 - y13_26 - y4_57 - y1_33 - y56_67 - y37_63 - y9_10 - y5_21 - y17_23 - y46_59 - y9_19 - y38_55 - y5_30 - y27_36 - y7_67 - y18_67 - y19_32 - y11_37 - y19_50 - y8_59 - y31_33 - y0_64 - y11_64 - y23_29 - y39_46 - y23_47 - y4_43 - y12_56 - y23_56 - y24_30 - y22_60 - y34_62 - y5_16 - y9_14 - y49_50 - y5_25 - y38_59 - y26_66 - y8_36 - y50_51 - y11_32 - y8_45 - y27_58 - y0_50 - y11_50 - y12_15 - y20_28 - y4_11 - y11_59 - y52_60 - y60_64 - y33_65 - y12_42 - y23_42 - y4_38 - y13_16 - y1_23 - y37_44 - y45_57 - y45_66 - y56_66 - y3_60 - y14_60 - y37_62 - y15_34 - y8_13 - y27_35 - y0_18 - y48_67 - y11_27 - y8_40 - y30_40 - y0_36 - y11_36 - y8_49 - y30_58 - y20_23 - y12_19 - y4_15 - y23_28 - y52_64 - y4_24 - y12_37 - y25_56 - y4_33 - y1_9 - y22_50 - y53_65 - y14_46 - y34_61 - y45_61 - y3_55 - y14_55 - y37_66 - y5_6 - y15_38 - y26_38 - y38_40 - y15_47 - y15_56 - y26_56 - y7_52 - y8_17 - y18_52 - y0_13 - y7_61 - y11_13 - y19_26 - y0_22 - y11_22 - y8_35 - y0_31 - y11_31 - y8_44 - y0_40 - y60_63 - y44_46 - y41_59 - y52_59 - y44_55 - y25_51 - y10_62 - y3_32 - y22_45 - y34_47 - y14_50 - y37_52 - y22_63 - y7_20 - y7_29 - y15_51 - y26_51 - y7_56 - y19_21 - y0_17 - y40_53 - y8_30 - y11_26 - y21_67 - y52_54 - y60_67 - y33_50 - y44_50 - y2_53 - y2_62 - y14_27 - y3_36 - y14_36 - y34_51 - y37_47 - y37_56 - y15_19 - y55_64 - y59_62 - y26_37 - y26_46 - y28_65 - y0_3 - y29_39 - y0_12 - y11_12 - y40_48 - y29_66 - y21_62 - y10_34 - y25_32 - y41_58 - y2_39 - y10_52 - y44_63 - y22_44 - y22_53 - y7_19 - y15_32 - y17_51 - y28_51 - y18_28 - y28_60 - y9_56 - y9_65 - y29_43 - y48_56 - y11_16 - y29_61 - y10_20 - y21_66 - y41_44 - y2_25 - y10_47 - y33_49 - y2_43 - y51_57 - y14_17 - y32_53 - y22_30 - y2_61 - y32_62 - y13_67 - y35_67 - y3_44 - y7_14 - y36_50 - y55_63 - y17_46 - y28_46 - y7_23 - y21_25 - y21_34 - y6_54 - y33_35 - y25_31 - y2_47 - y43_48 - y22_25 - y43_57 - y32_66 - y43_66 - y35_62 - y16_67 - y17_32 - y28_32 - y17_50 - y47_63 - y17_59 - y28_59 - y5_66 - y21_29 - y50_65 - y6_40 - y61_65 - y39_55 - y10_28 - y62_66 - y31_60 - y12_65 - y14_16 - y43_52 - y51_65 - y43_61 - y35_57 - y13_66 - y35_66 - y9_23 - y36_49 - y28_45 - y6_8 - y36_58 - y58_64 - y9_59 - y21_24 - y6_35 - y29_37 - y27_67 - y6_44 - y21_42 - y39_50 - y2_19 - y54_66 - y23_60 - y32_38 - y13_34 - y3_11 - y4_65 - y13_43 - y32_56 - y43_65 - y9_18 - y17_31 - y28_31 - y57_67 - y5_38 - y5_56 - y6_21 - y61_64 - y8_58 - y19_58 - y8_67 - y19_67 - y11_63 - y2_5 - y39_54 - y2_14 - y39_63 - y62_65 - y23_55 - y4_51 - y23_64 - y1_27 - y4_60 - y16_25 - y1_36 - y35_38 - y1_45 - y24_47 - y35_47 - y13_56 - y5_24 - y17_26 - y46_62 - y9_22 - y49_58 - y5_33 - y28_35 - y57_62 - y15_65 - y9_40 - y27_48 - y6_25 - y21_23 - y27_57 - y50_59 - y0_49 - y19_62 - y20_36 - y39_58 - y12_41 - y23_41 - y20_63 - y12_59 - y1_22 - y23_59 - y1_31 - y13_33 - y4_64 - y16_29 - y24_33 - y24_42 - y34_65 - y43_46 - y45_65 - y1_49 - y24_51 - y1_58 - y46_57 - y9_17 - y49_53 - y17_30 - y28_30 - y15_60 - y5_37 - y6_20 - y8_39 - y19_48 - y11_44 - y8_57 - y19_57 - y0_53 - y19_66 - y20_31 - y30_66 - y12_27 - y12_36 - y23_36 - y20_49 - y31_49 - y12_45 - y20_58 - y4_41 - y1_17 - y13_19 - y4_50 - y16_24 - y1_35 - y24_37 - y35_37 - y38_39 - y9_12 - y15_46 - y5_23 - y38_48 - y46_61 - y15_55 - y26_55 - y7_51 - y49_66 - y7_60 - y8_25 - y18_60 - y8_34 - y30_34 - y8_43 - y30_43 - y42_45 - y11_39 - y8_52 - y30_52 - y12_13 - y19_61 - y20_35 - y12_31 - y20_44 - y31_44 - y12_40 - y13_14 - y4_45 - y34_46 - y1_21 - y13_23 - y53_59 - y14_58 - y14_67 - y46_47 - y15_41 - y9_16 - y26_50 - y38_52 - y49_61 - y18_55 - y8_20 - y27_33 - y19_38 - y30_38 - y19_47 - y8_56 - y20_21 - y0_52 - y11_52 - y52_53 - y0_61 - y23_26 - y31_39 - y4_22 - y1_16 - y56_59 - y3_53 - y37_55 - y15_36 - y26_36 - y7_32 - y15_45 - y7_41 - y18_41 - y15_63 - y8_24 - y48_60 - y27_37 - y0_29 - y11_29 - y8_42 - y19_42 - y29_65 - y19_51 - y41_48 - y60_61 - y41_57 - y33_53 - y12_30 - y41_66 - y4_26 - y33_62 - y37_41 - y45_54 - y3_48 - y37_50 - y45_63 - y3_57 - y14_57 - y7_18 - y7_27 - y37_49 - y15_40 - y18_36 - y26_49 - y7_45 - y0_6 - y8_19 - y18_63 - y8_28 - y29_60 - y19_37 - y21_65 - y41_43 - y41_52 - y33_48 - y25_44 - y2_60 - y34_49 - y14_43 - y45_58 - y56_58 - y3_52 - y15_17 - y7_13 - y14_61 - y7_22 - y59_60 - y18_31 - y36_67 - y15_44 - y17_63 - y26_44 - y29_46 - y19_23 - y0_19 - y0_28 - y6_62 - y40_64 - y25_30 - y4_7 - y10_41 - y52_65 - y44_61 - y3_20 - y25_66 - y14_38 - y37_40 - y14_47 - y14_56
 Subject to
C1: x0+x1 <=1 
C2: x0+x3-y0_3 <=1 
C3: x0+x5-y0_5 <=1 
C4: x0+x6-y0_6 <=1 
C5: x0+x8 <=1 
C6: x0+x9 <=1 
C7: x0+x10 <=1 
C8: x0+x11 <=1 
C9: x0+x12-y0_12 <=1 
C10: x0+x13-y0_13 <=1 
C11: x0+x14 <=1 
C12: x0+x15 <=1 
C13: x0+x16 <=1 
C14: x0+x17-y0_17 <=1 
C15: x0+x18-y0_18 <=1 
C16: x0+x19-y0_19 <=1 
C17: x0+x20 <=1 
C18: x0+x22-y0_22 <=1 
C19: x0+x24 <=1 
C20: x0+x25 <=1 
C21: x0+x26 <=1 
C22: x0+x27 <=1 
C23: x0+x28-y0_28 <=1 
C24: x0+x29-y0_29 <=1 
C25: x0+x30 <=1 
C26: x0+x31-y0_31 <=1 
C27: x0+x33 <=1 
C28: x0+x34 <=1 
C29: x0+x36-y0_36 <=1 
C30: x0+x40-y0_40 <=1 
C31: x0+x41 <=1 
C32: x0+x45 <=1 
C33: x0+x48 <=1 
C34: x0+x49-y0_49 <=1 
C35: x0+x50-y0_50 <=1 
C36: x0+x51 <=1 
C37: x0+x52-y0_52 <=1 
C38: x0+x53-y0_53 <=1 
C39: x0+x54 <=1 
C40: x0+x58 <=1 
C41: x0+x60-y0_60 <=1 
C42: x0+x61-y0_61 <=1 
C43: x0+x62 <=1 
C44: x0+x64-y0_64 <=1 
C45: x0+x67 <=1 
C46: x1+x3 <=1 
C47: x1+x4 <=1 
C48: x1+x5 <=1 
C49: x1+x6 <=1 
C50: x1+x7 <=1 
C51: x1+x9-y1_9 <=1 
C52: x1+x10 <=1 
C53: x1+x11 <=1 
C54: x1+x14 <=1 
C55: x1+x15-y1_15 <=1 
C56: x1+x16-y1_16 <=1 
C57: x1+x17-y1_17 <=1 
C58: x1+x21-y1_21 <=1 
C59: x1+x22-y1_22 <=1 
C60: x1+x23-y1_23 <=1 
C61: x1+x24 <=1 
C62: x1+x25 <=1 
C63: x1+x26 <=1 
C64: x1+x27-y1_27 <=1 
C65: x1+x29-y1_29 <=1 
C66: x1+x31-y1_31 <=1 
C67: x1+x32 <=1 
C68: x1+x33-y1_33 <=1 
C69: x1+x34 <=1 
C70: x1+x35-y1_35 <=1 
C71: x1+x36-y1_36 <=1 
C72: x1+x37 <=1 
C73: x1+x38 <=1 
C74: x1+x40 <=1 
C75: x1+x41 <=1 
C76: x1+x43-y1_43 <=1 
C77: x1+x44 <=1 
C78: x1+x45-y1_45 <=1 
C79: x1+x46 <=1 
C80: x1+x48-y1_48 <=1 
C81: x1+x49-y1_49 <=1 
C82: x1+x52-y1_52 <=1 
C83: x1+x53-y1_53 <=1 
C84: x1+x56-y1_56 <=1 
C85: x1+x57-y1_57 <=1 
C86: x1+x58-y1_58 <=1 
C87: x1+x60 <=1 
C88: x1+x64 <=1 
C89: x2+x3 <=1 
C90: x2+x5-y2_5 <=1 
C91: x2+x7-y2_7 <=1 
C92: x2+x9 <=1 
C93: x2+x11-y2_11 <=1 
C94: x2+x14-y2_14 <=1 
C95: x2+x19-y2_19 <=1 
C96: x2+x22-y2_22 <=1 
C97: x2+x25-y2_25 <=1 
C98: x2+x27 <=1 
C99: x2+x28 <=1 
C100: x2+x30-y2_30 <=1 
C101: x2+x33 <=1 
C102: x2+x34 <=1 
C103: x2+x36 <=1 
C104: x2+x38 <=1 
C105: x2+x39-y2_39 <=1 
C106: x2+x40 <=1 
C107: x2+x41-y2_41 <=1 
C108: x2+x42 <=1 
C109: x2+x43-y2_43 <=1 
C110: x2+x44 <=1 
C111: x2+x46 <=1 
C112: x2+x47-y2_47 <=1 
C113: x2+x49 <=1 
C114: x2+x50-y2_50 <=1 
C115: x2+x52 <=1 
C116: x2+x53-y2_53 <=1 
C117: x2+x54-y2_54 <=1 
C118: x2+x56 <=1 
C119: x2+x57 <=1 
C120: x2+x58 <=1 
C121: x2+x59-y2_59 <=1 
C122: x2+x60-y2_60 <=1 
C123: x2+x61-y2_61 <=1 
C124: x2+x62-y2_62 <=1 
C125: x2+x64 <=1 
C126: x2+x66 <=1 
C127: x2+x67 <=1 
C128: x3+x4 <=1 
C129: x3+x5 <=1 
C130: x3+x6-y3_6 <=1 
C131: x3+x7 <=1 
C132: x3+x9-y3_9 <=1 
C133: x3+x11-y3_11 <=1 
C134: x3+x14 <=1 
C135: x3+x15-y3_15 <=1 
C136: x3+x18-y3_18 <=1 
C137: x3+x20-y3_20 <=1 
C138: x3+x23 <=1 
C139: x3+x24 <=1 
C140: x3+x25 <=1 
C141: x3+x26 <=1 
C142: x3+x28 <=1 
C143: x3+x30 <=1 
C144: x3+x31 <=1 
C145: x3+x32-y3_32 <=1 
C146: x3+x35 <=1 
C147: x3+x36-y3_36 <=1 
C148: x3+x37 <=1 
C149: x3+x40 <=1 
C150: x3+x41 <=1 
C151: x3+x44-y3_44 <=1 
C152: x3+x47-y3_47 <=1 
C153: x3+x48-y3_48 <=1 
C154: x3+x50 <=1 
C155: x3+x52-y3_52 <=1 
C156: x3+x53-y3_53 <=1 
C157: x3+x55-y3_55 <=1 
C158: x3+x56 <=1 
C159: x3+x57-y3_57 <=1 
C160: x3+x60-y3_60 <=1 
C161: x3+x62 <=1 
C162: x3+x63 <=1 
C163: x3+x64 <=1 
C164: x4+x7-y4_7 <=1 
C165: x4+x10 <=1 
C166: x4+x11-y4_11 <=1 
C167: x4+x12 <=1 
C168: x4+x15-y4_15 <=1 
C169: x4+x17 <=1 
C170: x4+x18 <=1 
C171: x4+x21 <=1 
C172: x4+x22-y4_22 <=1 
C173: x4+x24-y4_24 <=1 
C174: x4+x25 <=1 
C175: x4+x26-y4_26 <=1 
C176: x4+x30-y4_30 <=1 
C177: x4+x31 <=1 
C178: x4+x32 <=1 
C179: x4+x33-y4_33 <=1 
C180: x4+x38-y4_38 <=1 
C181: x4+x40 <=1 
C182: x4+x41-y4_41 <=1 
C183: x4+x43-y4_43 <=1 
C184: x4+x44-y4_44 <=1 
C185: x4+x45-y4_45 <=1 
C186: x4+x48-y4_48 <=1 
C187: x4+x49-y4_49 <=1 
C188: x4+x50-y4_50 <=1 
C189: x4+x51-y4_51 <=1 
C190: x4+x52 <=1 
C191: x4+x55 <=1 
C192: x4+x56 <=1 
C193: x4+x57-y4_57 <=1 
C194: x4+x60-y4_60 <=1 
C195: x4+x61 <=1 
C196: x4+x62 <=1 
C197: x4+x63-y4_63 <=1 
C198: x4+x64-y4_64 <=1 
C199: x4+x65-y4_65 <=1 
C200: x5+x6-y5_6 <=1 
C201: x5+x8-y5_8 <=1 
C202: x5+x11 <=1 
C203: x5+x14 <=1 
C204: x5+x16-y5_16 <=1 
C205: x5+x17 <=1 
C206: x5+x21-y5_21 <=1 
C207: x5+x22-y5_22 <=1 
C208: x5+x23-y5_23 <=1 
C209: x5+x24-y5_24 <=1 
C210: x5+x25-y5_25 <=1 
C211: x5+x26 <=1 
C212: x5+x27 <=1 
C213: x5+x28 <=1 
C214: x5+x30-y5_30 <=1 
C215: x5+x31-y5_31 <=1 
C216: x5+x33-y5_33 <=1 
C217: x5+x34 <=1 
C218: x5+x37-y5_37 <=1 
C219: x5+x38-y5_38 <=1 
C220: x5+x40-y5_40 <=1 
C221: x5+x41-y5_41 <=1 
C222: x5+x43 <=1 
C223: x5+x45 <=1 
C224: x5+x47 <=1 
C225: x5+x48 <=1 
C226: x5+x49 <=1 
C227: x5+x50 <=1 
C228: x5+x54 <=1 
C229: x5+x56-y5_56 <=1 
C230: x5+x58-y5_58 <=1 
C231: x5+x59 <=1 
C232: x5+x62 <=1 
C233: x5+x63 <=1 
C234: x5+x64 <=1 
C235: x5+x65-y5_65 <=1 
C236: x5+x66-y5_66 <=1 
C237: x5+x67 <=1 
C238: x6+x7 <=1 
C239: x6+x8-y6_8 <=1 
C240: x6+x10 <=1 
C241: x6+x12 <=1 
C242: x6+x14 <=1 
C243: x6+x15-y6_15 <=1 
C244: x6+x16 <=1 
C245: x6+x17 <=1 
C246: x6+x19-y6_19 <=1 
C247: x6+x20-y6_20 <=1 
C248: x6+x21-y6_21 <=1 
C249: x6+x22 <=1 
C250: x6+x25-y6_25 <=1 
C251: x6+x28 <=1 
C252: x6+x32 <=1 
C253: x6+x34 <=1 
C254: x6+x35-y6_35 <=1 
C255: x6+x38-y6_38 <=1 
C256: x6+x40-y6_40 <=1 
C257: x6+x42-y6_42 <=1 
C258: x6+x44-y6_44 <=1 
C259: x6+x46-y6_46 <=1 
C260: x6+x47 <=1 
C261: x6+x48 <=1 
C262: x6+x52-y6_52 <=1 
C263: x6+x54-y6_54 <=1 
C264: x6+x56-y6_56 <=1 
C265: x6+x62-y6_62 <=1 
C266: x6+x63 <=1 
C267: x6+x65 <=1 
C268: x6+x66 <=1 
C269: x7+x8 <=1 
C270: x7+x11 <=1 
C271: x7+x13-y7_13 <=1 
C272: x7+x14-y7_14 <=1 
C273: x7+x15 <=1 
C274: x7+x16-y7_16 <=1 
C275: x7+x17 <=1 
C276: x7+x18-y7_18 <=1 
C277: x7+x19-y7_19 <=1 
C278: x7+x20-y7_20 <=1 
C279: x7+x21 <=1 
C280: x7+x22-y7_22 <=1 
C281: x7+x23-y7_23 <=1 
C282: x7+x26 <=1 
C283: x7+x27-y7_27 <=1 
C284: x7+x29-y7_29 <=1 
C285: x7+x32-y7_32 <=1 
C286: x7+x34 <=1 
C287: x7+x35-y7_35 <=1 
C288: x7+x36 <=1 
C289: x7+x37 <=1 
C290: x7+x38 <=1 
C291: x7+x39 <=1 
C292: x7+x40 <=1 
C293: x7+x41-y7_41 <=1 
C294: x7+x43 <=1 
C295: x7+x45-y7_45 <=1 
C296: x7+x47 <=1 
C297: x7+x48 <=1 
C298: x7+x50 <=1 
C299: x7+x51-y7_51 <=1 
C300: x7+x52-y7_52 <=1 
C301: x7+x53 <=1 
C302: x7+x54 <=1 
C303: x7+x55 <=1 
C304: x7+x56-y7_56 <=1 
C305: x7+x58 <=1 
C306: x7+x60-y7_60 <=1 
C307: x7+x61-y7_61 <=1 
C308: x7+x64 <=1 
C309: x7+x67-y7_67 <=1 
C310: x8+x9-y8_9 <=1 
C311: x8+x10 <=1 
C312: x8+x11 <=1 
C313: x8+x13-y8_13 <=1 
C314: x8+x15 <=1 
C315: x8+x17-y8_17 <=1 
C316: x8+x18-y8_18 <=1 
C317: x8+x19-y8_19 <=1 
C318: x8+x20-y8_20 <=1 
C319: x8+x24-y8_24 <=1 
C320: x8+x25-y8_25 <=1 
C321: x8+x26 <=1 
C322: x8+x28-y8_28 <=1 
C323: x8+x30-y8_30 <=1 
C324: x8+x32 <=1 
C325: x8+x34-y8_34 <=1 
C326: x8+x35-y8_35 <=1 
C327: x8+x36-y8_36 <=1 
C328: x8+x37 <=1 
C329: x8+x39-y8_39 <=1 
C330: x8+x40-y8_40 <=1 
C331: x8+x42-y8_42 <=1 
C332: x8+x43-y8_43 <=1 
C333: x8+x44-y8_44 <=1 
C334: x8+x45-y8_45 <=1 
C335: x8+x48 <=1 
C336: x8+x49-y8_49 <=1 
C337: x8+x50 <=1 
C338: x8+x51-y8_51 <=1 
C339: x8+x52-y8_52 <=1 
C340: x8+x56-y8_56 <=1 
C341: x8+x57-y8_57 <=1 
C342: x8+x58-y8_58 <=1 
C343: x8+x59-y8_59 <=1 
C344: x8+x60 <=1 
C345: x8+x61 <=1 
C346: x8+x63 <=1 
C347: x8+x66 <=1 
C348: x8+x67-y8_67 <=1 
C349: x9+x10-y9_10 <=1 
C350: x9+x12-y9_12 <=1 
C351: x9+x13 <=1 
C352: x9+x14-y9_14 <=1 
C353: x9+x15 <=1 
C354: x9+x16-y9_16 <=1 
C355: x9+x17-y9_17 <=1 
C356: x9+x18-y9_18 <=1 
C357: x9+x19-y9_19 <=1 
C358: x9+x20-y9_20 <=1 
C359: x9+x22-y9_22 <=1 
C360: x9+x23-y9_23 <=1 
C361: x9+x24 <=1 
C362: x9+x25-y9_25 <=1 
C363: x9+x28 <=1 
C364: x9+x29-y9_29 <=1 
C365: x9+x33-y9_33 <=1 
C366: x9+x35 <=1 
C367: x9+x37 <=1 
C368: x9+x38 <=1 
C369: x9+x39 <=1 
C370: x9+x40-y9_40 <=1 
C371: x9+x41 <=1 
C372: x9+x44 <=1 
C373: x9+x47 <=1 
C374: x9+x48 <=1 
C375: x9+x54 <=1 
C376: x9+x56-y9_56 <=1 
C377: x9+x57 <=1 
C378: x9+x58-y9_58 <=1 
C379: x9+x59-y9_59 <=1 
C380: x9+x61-y9_61 <=1 
C381: x9+x63 <=1 
C382: x9+x64 <=1 
C383: x9+x65-y9_65 <=1 
C384: x9+x66 <=1 
C385: x10+x11 <=1 
C386: x10+x12 <=1 
C387: x10+x14 <=1 
C388: x10+x15 <=1 
C389: x10+x16 <=1 
C390: x10+x19 <=1 
C391: x10+x20-y10_20 <=1 
C392: x10+x21-y10_21 <=1 
C393: x10+x22-y10_22 <=1 
C394: x10+x23 <=1 
C395: x10+x26 <=1 
C396: x10+x27-y10_27 <=1 
C397: x10+x28-y10_28 <=1 
C398: x10+x29 <=1 
C399: x10+x30 <=1 
C400: x10+x34-y10_34 <=1 
C401: x10+x36-y10_36 <=1 
C402: x10+x37 <=1 
C403: x10+x39 <=1 
C404: x10+x40-y10_40 <=1 
C405: x10+x41-y10_41 <=1 
C406: x10+x42 <=1 
C407: x10+x43 <=1 
C408: x10+x44 <=1 
C409: x10+x45-y10_45 <=1 
C410: x10+x47-y10_47 <=1 
C411: x10+x48 <=1 
C412: x10+x49-y10_49 <=1 
C413: x10+x52-y10_52 <=1 
C414: x10+x56 <=1 
C415: x10+x58-y10_58 <=1 
C416: x10+x59 <=1 
C417: x10+x60 <=1 
C418: x10+x61 <=1 
C419: x10+x62-y10_62 <=1 
C420: x10+x66 <=1 
C421: x11+x12-y11_12 <=1 
C422: x11+x13-y11_13 <=1 
C423: x11+x15 <=1 
C424: x11+x16-y11_16 <=1 
C425: x11+x17 <=1 
C426: x11+x22-y11_22 <=1 
C427: x11+x24 <=1 
C428: x11+x25 <=1 
C429: x11+x26-y11_26 <=1 
C430: x11+x27-y11_27 <=1 
C431: x11+x28 <=1 
C432: x11+x29-y11_29 <=1 
C433: x11+x31-y11_31 <=1 
C434: x11+x32-y11_32 <=1 
C435: x11+x33 <=1 
C436: x11+x34 <=1 
C437: x11+x36-y11_36 <=1 
C438: x11+x37-y11_37 <=1 
C439: x11+x38 <=1 
C440: x11+x39-y11_39 <=1 
C441: x11+x40 <=1 
C442: x11+x41 <=1 
C443: x11+x43 <=1 
C444: x11+x44-y11_44 <=1 
C445: x11+x45 <=1 
C446: x11+x50-y11_50 <=1 
C447: x11+x52-y11_52 <=1 
C448: x11+x54 <=1 
C449: x11+x56 <=1 
C450: x11+x59-y11_59 <=1 
C451: x11+x63-y11_63 <=1 
C452: x11+x64-y11_64 <=1 
C453: x11+x65 <=1 
C454: x12+x13-y12_13 <=1 
C455: x12+x14 <=1 
C456: x12+x15-y12_15 <=1 
C457: x12+x18 <=1 
C458: x12+x19-y12_19 <=1 
C459: x12+x25 <=1 
C460: x12+x27-y12_27 <=1 
C461: x12+x28 <=1 
C462: x12+x30-y12_30 <=1 
C463: x12+x31-y12_31 <=1 
C464: x12+x32 <=1 
C465: x12+x33 <=1 
C466: x12+x36-y12_36 <=1 
C467: x12+x37-y12_37 <=1 
C468: x12+x38 <=1 
C469: x12+x39-y12_39 <=1 
C470: x12+x40-y12_40 <=1 
C471: x12+x41-y12_41 <=1 
C472: x12+x42-y12_42 <=1 
C473: x12+x45-y12_45 <=1 
C474: x12+x46 <=1 
C475: x12+x50 <=1 
C476: x12+x51 <=1 
C477: x12+x53-y12_53 <=1 
C478: x12+x55 <=1 
C479: x12+x56-y12_56 <=1 
C480: x12+x58-y12_58 <=1 
C481: x12+x59-y12_59 <=1 
C482: x12+x60 <=1 
C483: x12+x62-y12_62 <=1 
C484: x12+x63-y12_63 <=1 
C485: x12+x64 <=1 
C486: x12+x65-y12_65 <=1 
C487: x12+x66 <=1 
C488: x12+x67-y12_67 <=1 
C489: x13+x14-y13_14 <=1 
C490: x13+x15 <=1 
C491: x13+x16-y13_16 <=1 
C492: x13+x17-y13_17 <=1 
C493: x13+x19-y13_19 <=1 
C494: x13+x20 <=1 
C495: x13+x23-y13_23 <=1 
C496: x13+x24 <=1 
C497: x13+x26-y13_26 <=1 
C498: x13+x27-y13_27 <=1 
C499: x13+x28 <=1 
C500: x13+x32 <=1 
C501: x13+x33-y13_33 <=1 
C502: x13+x34-y13_34 <=1 
C503: x13+x35 <=1 
C504: x13+x36 <=1 
C505: x13+x40 <=1 
C506: x13+x43-y13_43 <=1 
C507: x13+x44 <=1 
C508: x13+x45 <=1 
C509: x13+x46-y13_46 <=1 
C510: x13+x47 <=1 
C511: x13+x48 <=1 
C512: x13+x50-y13_50 <=1 
C513: x13+x51-y13_51 <=1 
C514: x13+x55-y13_55 <=1 
C515: x13+x56-y13_56 <=1 
C516: x13+x58 <=1 
C517: x13+x59-y13_59 <=1 
C518: x13+x60-y13_60 <=1 
C519: x13+x64 <=1 
C520: x13+x66-y13_66 <=1 
C521: x13+x67-y13_67 <=1 
C522: x14+x15 <=1 
C523: x14+x16-y14_16 <=1 
C524: x14+x17-y14_17 <=1 
C525: x14+x18 <=1 
C526: x14+x20 <=1 
C527: x14+x23 <=1 
C528: x14+x27-y14_27 <=1 
C529: x14+x28 <=1 
C530: x14+x29 <=1 
C531: x14+x34 <=1 
C532: x14+x36-y14_36 <=1 
C533: x14+x37-y14_37 <=1 
C534: x14+x38-y14_38 <=1 
C535: x14+x40 <=1 
C536: x14+x42 <=1 
C537: x14+x43-y14_43 <=1 
C538: x14+x44 <=1 
C539: x14+x46-y14_46 <=1 
C540: x14+x47-y14_47 <=1 
C541: x14+x48 <=1 
C542: x14+x50-y14_50 <=1 
C543: x14+x51 <=1 
C544: x14+x54 <=1 
C545: x14+x55-y14_55 <=1 
C546: x14+x56-y14_56 <=1 
C547: x14+x57-y14_57 <=1 
C548: x14+x58-y14_58 <=1 
C549: x14+x59 <=1 
C550: x14+x60-y14_60 <=1 
C551: x14+x61-y14_61 <=1 
C552: x14+x65 <=1 
C553: x14+x66 <=1 
C554: x14+x67-y14_67 <=1 
C555: x15+x16 <=1 
C556: x15+x17-y15_17 <=1 
C557: x15+x18 <=1 
C558: x15+x19-y15_19 <=1 
C559: x15+x20 <=1 
C560: x15+x23 <=1 
C561: x15+x25-y15_25 <=1 
C562: x15+x26 <=1 
C563: x15+x27 <=1 
C564: x15+x29 <=1 
C565: x15+x30 <=1 
C566: x15+x31 <=1 
C567: x15+x32-y15_32 <=1 
C568: x15+x34-y15_34 <=1 
C569: x15+x35 <=1 
C570: x15+x36-y15_36 <=1 
C571: x15+x38-y15_38 <=1 
C572: x15+x39 <=1 
C573: x15+x40-y15_40 <=1 
C574: x15+x41-y15_41 <=1 
C575: x15+x44-y15_44 <=1 
C576: x15+x45-y15_45 <=1 
C577: x15+x46-y15_46 <=1 
C578: x15+x47-y15_47 <=1 
C579: x15+x49 <=1 
C580: x15+x51-y15_51 <=1 
C581: x15+x52 <=1 
C582: x15+x55-y15_55 <=1 
C583: x15+x56-y15_56 <=1 
C584: x15+x58 <=1 
C585: x15+x60-y15_60 <=1 
C586: x15+x62 <=1 
C587: x15+x63-y15_63 <=1 
C588: x15+x65-y15_65 <=1 
C589: x15+x66 <=1 
C590: x15+x67 <=1 
C591: x16+x17 <=1 
C592: x16+x18 <=1 
C593: x16+x21 <=1 
C594: x16+x24-y16_24 <=1 
C595: x16+x25-y16_25 <=1 
C596: x16+x26 <=1 
C597: x16+x29-y16_29 <=1 
C598: x16+x30 <=1 
C599: x16+x32 <=1 
C600: x16+x36-y16_36 <=1 
C601: x16+x37 <=1 
C602: x16+x39 <=1 
C603: x16+x40 <=1 
C604: x16+x50 <=1 
C605: x16+x51 <=1 
C606: x16+x52 <=1 
C607: x16+x54-y16_54 <=1 
C608: x16+x61 <=1 
C609: x16+x63 <=1 
C610: x16+x64-y16_64 <=1 
C611: x16+x66 <=1 
C612: x16+x67-y16_67 <=1 
C613: x17+x19 <=1 
C614: x17+x20-y17_20 <=1 
C615: x17+x21 <=1 
C616: x17+x23-y17_23 <=1 
C617: x17+x25-y17_25 <=1 
C618: x17+x26-y17_26 <=1 
C619: x17+x28 <=1 
C620: x17+x29 <=1 
C621: x17+x30-y17_30 <=1 
C622: x17+x31-y17_31 <=1 
C623: x17+x32-y17_32 <=1 
C624: x17+x33-y17_33 <=1 
C625: x17+x35 <=1 
C626: x17+x36 <=1 
C627: x17+x37-y17_37 <=1 
C628: x17+x40 <=1 
C629: x17+x41 <=1 
C630: x17+x42 <=1 
C631: x17+x43 <=1 
C632: x17+x44 <=1 
C633: x17+x45 <=1 
C634: x17+x46-y17_46 <=1 
C635: x17+x47 <=1 
C636: x17+x48 <=1 
C637: x17+x50-y17_50 <=1 
C638: x17+x51-y17_51 <=1 
C639: x17+x53 <=1 
C640: x17+x54 <=1 
C641: x17+x55 <=1 
C642: x17+x56 <=1 
C643: x17+x57-y17_57 <=1 
C644: x17+x59-y17_59 <=1 
C645: x17+x61-y17_61 <=1 
C646: x17+x62 <=1 
C647: x17+x63-y17_63 <=1 
C648: x17+x64 <=1 
C649: x17+x65 <=1 
C650: x17+x66 <=1 
C651: x17+x67 <=1 
C652: x18+x20 <=1 
C653: x18+x21 <=1 
C654: x18+x22 <=1 
C655: x18+x26 <=1 
C656: x18+x27 <=1 
C657: x18+x28-y18_28 <=1 
C658: x18+x30 <=1 
C659: x18+x31-y18_31 <=1 
C660: x18+x35-y18_35 <=1 
C661: x18+x36-y18_36 <=1 
C662: x18+x41-y18_41 <=1 
C663: x18+x43 <=1 
C664: x18+x48 <=1 
C665: x18+x52-y18_52 <=1 
C666: x18+x55-y18_55 <=1 
C667: x18+x59 <=1 
C668: x18+x60-y18_60 <=1 
C669: x18+x63-y18_63 <=1 
C670: x18+x67-y18_67 <=1 
C671: x19+x20 <=1 
C672: x19+x21-y19_21 <=1 
C673: x19+x23-y19_23 <=1 
C674: x19+x24 <=1 
C675: x19+x26-y19_26 <=1 
C676: x19+x29 <=1 
C677: x19+x30 <=1 
C678: x19+x31 <=1 
C679: x19+x32-y19_32 <=1 
C680: x19+x37-y19_37 <=1 
C681: x19+x38-y19_38 <=1 
C682: x19+x39 <=1 
C683: x19+x41 <=1 
C684: x19+x42-y19_42 <=1 
C685: x19+x43 <=1 
C686: x19+x45 <=1 
C687: x19+x47-y19_47 <=1 
C688: x19+x48-y19_48 <=1 
C689: x19+x49 <=1 
C690: x19+x50-y19_50 <=1 
C691: x19+x51-y19_51 <=1 
C692: x19+x53 <=1 
C693: x19+x56 <=1 
C694: x19+x57-y19_57 <=1 
C695: x19+x58-y19_58 <=1 
C696: x19+x59 <=1 
C697: x19+x60-y19_60 <=1 
C698: x19+x61-y19_61 <=1 
C699: x19+x62-y19_62 <=1 
C700: x19+x65 <=1 
C701: x19+x66-y19_66 <=1 
C702: x19+x67-y19_67 <=1 
C703: x20+x21-y20_21 <=1 
C704: x20+x23-y20_23 <=1 
C705: x20+x25 <=1 
C706: x20+x26 <=1 
C707: x20+x28-y20_28 <=1 
C708: x20+x29-y20_29 <=1 
C709: x20+x30 <=1 
C710: x20+x31-y20_31 <=1 
C711: x20+x35-y20_35 <=1 
C712: x20+x36-y20_36 <=1 
C713: x20+x38-y20_38 <=1 
C714: x20+x41 <=1 
C715: x20+x43-y20_43 <=1 
C716: x20+x44-y20_44 <=1 
C717: x20+x49-y20_49 <=1 
C718: x20+x50 <=1 
C719: x20+x52 <=1 
C720: x20+x53 <=1 
C721: x20+x54 <=1 
C722: x20+x55 <=1 
C723: x20+x56-y20_56 <=1 
C724: x20+x58-y20_58 <=1 
C725: x20+x60 <=1 
C726: x20+x62-y20_62 <=1 
C727: x20+x63-y20_63 <=1 
C728: x20+x64 <=1 
C729: x20+x65 <=1 
C730: x20+x67-y20_67 <=1 
C731: x21+x23-y21_23 <=1 
C732: x21+x24-y21_24 <=1 
C733: x21+x25-y21_25 <=1 
C734: x21+x29-y21_29 <=1 
C735: x21+x31 <=1 
C736: x21+x33 <=1 
C737: x21+x34-y21_34 <=1 
C738: x21+x36-y21_36 <=1 
C739: x21+x37-y21_37 <=1 
C740: x21+x40 <=1 
C741: x21+x41 <=1 
C742: x21+x42-y21_42 <=1 
C743: x21+x46 <=1 
C744: x21+x48 <=1 
C745: x21+x51 <=1 
C746: x21+x54-y21_54 <=1 
C747: x21+x55-y21_55 <=1 
C748: x21+x59 <=1 
C749: x21+x60 <=1 
C750: x21+x61 <=1 
C751: x21+x62-y21_62 <=1 
C752: x21+x63 <=1 
C753: x21+x64-y21_64 <=1 
C754: x21+x65-y21_65 <=1 
C755: x21+x66-y21_66 <=1 
C756: x21+x67-y21_67 <=1 
C757: x22+x23 <=1 
C758: x22+x24 <=1 
C759: x22+x25-y22_25 <=1 
C760: x22+x27 <=1 
C761: x22+x28-y22_28 <=1 
C762: x22+x30-y22_30 <=1 
C763: x22+x33 <=1 
C764: x22+x35 <=1 
C765: x22+x37 <=1 
C766: x22+x41 <=1 
C767: x22+x44-y22_44 <=1 
C768: x22+x45-y22_45 <=1 
C769: x22+x48 <=1 
C770: x22+x49 <=1 
C771: x22+x50-y22_50 <=1 
C772: x22+x51 <=1 
C773: x22+x52 <=1 
C774: x22+x53-y22_53 <=1 
C775: x22+x54 <=1 
C776: x22+x58 <=1 
C777: x22+x59 <=1 
C778: x22+x60-y22_60 <=1 
C779: x22+x61 <=1 
C780: x22+x63-y22_63 <=1 
C781: x22+x64 <=1 
C782: x23+x24 <=1 
C783: x23+x26-y23_26 <=1 
C784: x23+x27 <=1 
C785: x23+x28-y23_28 <=1 
C786: x23+x29-y23_29 <=1 
C787: x23+x34 <=1 
C788: x23+x36-y23_36 <=1 
C789: x23+x38 <=1 
C790: x23+x39-y23_39 <=1 
C791: x23+x40 <=1 
C792: x23+x41-y23_41 <=1 
C793: x23+x42-y23_42 <=1 
C794: x23+x43 <=1 
C795: x23+x45 <=1 
C796: x23+x46 <=1 
C797: x23+x47-y23_47 <=1 
C798: x23+x48 <=1 
C799: x23+x49 <=1 
C800: x23+x52 <=1 
C801: x23+x53 <=1 
C802: x23+x54 <=1 
C803: x23+x55-y23_55 <=1 
C804: x23+x56-y23_56 <=1 
C805: x23+x57-y23_57 <=1 
C806: x23+x58-y23_58 <=1 
C807: x23+x59-y23_59 <=1 
C808: x23+x60-y23_60 <=1 
C809: x23+x61-y23_61 <=1 
C810: x23+x64-y23_64 <=1 
C811: x23+x65 <=1 
C812: x23+x66-y23_66 <=1 
C813: x24+x25 <=1 
C814: x24+x27-y24_27 <=1 
C815: x24+x30-y24_30 <=1 
C816: x24+x31 <=1 
C817: x24+x33-y24_33 <=1 
C818: x24+x35 <=1 
C819: x24+x37-y24_37 <=1 
C820: x24+x39 <=1 
C821: x24+x42-y24_42 <=1 
C822: x24+x43 <=1 
C823: x24+x44 <=1 
C824: x24+x45 <=1 
C825: x24+x47-y24_47 <=1 
C826: x24+x48 <=1 
C827: x24+x49-y24_49 <=1 
C828: x24+x50 <=1 
C829: x24+x51-y24_51 <=1 
C830: x24+x52 <=1 
C831: x24+x53 <=1 
C832: x24+x55 <=1 
C833: x24+x57 <=1 
C834: x24+x60-y24_60 <=1 
C835: x24+x62 <=1 
C836: x24+x63-y24_63 <=1 
C837: x24+x67 <=1 
C838: x25+x26 <=1 
C839: x25+x29 <=1 
C840: x25+x30-y25_30 <=1 
C841: x25+x31-y25_31 <=1 
C842: x25+x32-y25_32 <=1 
C843: x25+x33 <=1 
C844: x25+x34-y25_34 <=1 
C845: x25+x36 <=1 
C846: x25+x37 <=1 
C847: x25+x38 <=1 
C848: x25+x39 <=1 
C849: x25+x40 <=1 
C850: x25+x41 <=1 
C851: x25+x42-y25_42 <=1 
C852: x25+x44-y25_44 <=1 
C853: x25+x45 <=1 
C854: x25+x47-y25_47 <=1 
C855: x25+x51-y25_51 <=1 
C856: x25+x53 <=1 
C857: x25+x55 <=1 
C858: x25+x56-y25_56 <=1 
C859: x25+x61-y25_61 <=1 
C860: x25+x62 <=1 
C861: x25+x63 <=1 
C862: x25+x64 <=1 
C863: x25+x66-y25_66 <=1 
C864: x26+x29 <=1 
C865: x26+x32 <=1 
C866: x26+x33 <=1 
C867: x26+x34 <=1 
C868: x26+x36-y26_36 <=1 
C869: x26+x37-y26_37 <=1 
C870: x26+x38-y26_38 <=1 
C871: x26+x39-y26_39 <=1 
C872: x26+x40 <=1 
C873: x26+x44-y26_44 <=1 
C874: x26+x45 <=1 
C875: x26+x46-y26_46 <=1 
C876: x26+x47 <=1 
C877: x26+x48 <=1 
C878: x26+x49-y26_49 <=1 
C879: x26+x50-y26_50 <=1 
C880: x26+x51-y26_51 <=1 
C881: x26+x52 <=1 
C882: x26+x54 <=1 
C883: x26+x55-y26_55 <=1 
C884: x26+x56-y26_56 <=1 
C885: x26+x64 <=1 
C886: x26+x66-y26_66 <=1 
C887: x26+x67-y26_67 <=1 
C888: x27+x28 <=1 
C889: x27+x31 <=1 
C890: x27+x32 <=1 
C891: x27+x33-y27_33 <=1 
C892: x27+x34 <=1 
C893: x27+x35-y27_35 <=1 
C894: x27+x36-y27_36 <=1 
C895: x27+x37-y27_37 <=1 
C896: x27+x39 <=1 
C897: x27+x40 <=1 
C898: x27+x41 <=1 
C899: x27+x46 <=1 
C900: x27+x48-y27_48 <=1 
C901: x27+x50-y27_50 <=1 
C902: x27+x54 <=1 
C903: x27+x56 <=1 
C904: x27+x57-y27_57 <=1 
C905: x27+x58-y27_58 <=1 
C906: x27+x59 <=1 
C907: x27+x63 <=1 
C908: x27+x65 <=1 
C909: x27+x67-y27_67 <=1 
C910: x28+x29-y28_29 <=1 
C911: x28+x30-y28_30 <=1 
C912: x28+x31-y28_31 <=1 
C913: x28+x32-y28_32 <=1 
C914: x28+x33-y28_33 <=1 
C915: x28+x34 <=1 
C916: x28+x35-y28_35 <=1 
C917: x28+x38-y28_38 <=1 
C918: x28+x39 <=1 
C919: x28+x41 <=1 
C920: x28+x44 <=1 
C921: x28+x45-y28_45 <=1 
C922: x28+x46-y28_46 <=1 
C923: x28+x47 <=1 
C924: x28+x48-y28_48 <=1 
C925: x28+x49 <=1 
C926: x28+x51-y28_51 <=1 
C927: x28+x54 <=1 
C928: x28+x56 <=1 
C929: x28+x57-y28_57 <=1 
C930: x28+x59-y28_59 <=1 
C931: x28+x60-y28_60 <=1 
C932: x28+x61 <=1 
C933: x28+x63 <=1 
C934: x28+x65-y28_65 <=1 
C935: x29+x30 <=1 
C936: x29+x31-y29_31 <=1 
C937: x29+x34 <=1 
C938: x29+x35 <=1 
C939: x29+x36-y29_36 <=1 
C940: x29+x37-y29_37 <=1 
C941: x29+x39-y29_39 <=1 
C942: x29+x40 <=1 
C943: x29+x41-y29_41 <=1 
C944: x29+x42 <=1 
C945: x29+x43-y29_43 <=1 
C946: x29+x45 <=1 
C947: x29+x46-y29_46 <=1 
C948: x29+x49-y29_49 <=1 
C949: x29+x51 <=1 
C950: x29+x52 <=1 
C951: x29+x54 <=1 
C952: x29+x57 <=1 
C953: x29+x59-y29_59 <=1 
C954: x29+x60-y29_60 <=1 
C955: x29+x61-y29_61 <=1 
C956: x29+x63-y29_63 <=1 
C957: x29+x64 <=1 
C958: x29+x65-y29_65 <=1 
C959: x29+x66-y29_66 <=1 
C960: x30+x32 <=1 
C961: x30+x34-y30_34 <=1 
C962: x30+x35 <=1 
C963: x30+x38-y30_38 <=1 
C964: x30+x40-y30_40 <=1 
C965: x30+x41 <=1 
C966: x30+x42 <=1 
C967: x30+x43-y30_43 <=1 
C968: x30+x45 <=1 
C969: x30+x46-y30_46 <=1 
C970: x30+x47 <=1 
C971: x30+x49 <=1 
C972: x30+x51 <=1 
C973: x30+x52-y30_52 <=1 
C974: x30+x54 <=1 
C975: x30+x55 <=1 
C976: x30+x58-y30_58 <=1 
C977: x30+x59 <=1 
C978: x30+x61 <=1 
C979: x30+x66-y30_66 <=1 
C980: x31+x32 <=1 
C981: x31+x33-y31_33 <=1 
C982: x31+x35 <=1 
C983: x31+x36 <=1 
C984: x31+x38-y31_38 <=1 
C985: x31+x39-y31_39 <=1 
C986: x31+x42 <=1 
C987: x31+x43 <=1 
C988: x31+x44-y31_44 <=1 
C989: x31+x46 <=1 
C990: x31+x47-y31_47 <=1 
C991: x31+x48 <=1 
C992: x31+x49-y31_49 <=1 
C993: x31+x51 <=1 
C994: x31+x53 <=1 
C995: x31+x54 <=1 
C996: x31+x55 <=1 
C997: x31+x56-y31_56 <=1 
C998: x31+x60-y31_60 <=1 
C999: x31+x62-y31_62 <=1 
C1000: x31+x63 <=1 
C1001: x31+x66 <=1 
C1002: x31+x67 <=1 
C1003: x32+x35 <=1 
C1004: x32+x38-y32_38 <=1 
C1005: x32+x40 <=1 
C1006: x32+x42 <=1 
C1007: x32+x44 <=1 
C1008: x32+x49-y32_49 <=1 
C1009: x32+x50 <=1 
C1010: x32+x53-y32_53 <=1 
C1011: x32+x54-y32_54 <=1 
C1012: x32+x55-y32_55 <=1 
C1013: x32+x56-y32_56 <=1 
C1014: x32+x58 <=1 
C1015: x32+x60-y32_60 <=1 
C1016: x32+x62-y32_62 <=1 
C1017: x32+x63 <=1 
C1018: x32+x64-y32_64 <=1 
C1019: x32+x65 <=1 
C1020: x32+x66-y32_66 <=1 
C1021: x33+x35-y33_35 <=1 
C1022: x33+x36 <=1 
C1023: x33+x38 <=1 
C1024: x33+x40 <=1 
C1025: x33+x41 <=1 
C1026: x33+x43 <=1 
C1027: x33+x46 <=1 
C1028: x33+x47-y33_47 <=1 
C1029: x33+x48-y33_48 <=1 
C1030: x33+x49-y33_49 <=1 
C1031: x33+x50-y33_50 <=1 
C1032: x33+x51 <=1 
C1033: x33+x53-y33_53 <=1 
C1034: x33+x54 <=1 
C1035: x33+x56-y33_56 <=1 
C1036: x33+x58 <=1 
C1037: x33+x59 <=1 
C1038: x33+x62-y33_62 <=1 
C1039: x33+x63 <=1 
C1040: x33+x65-y33_65 <=1 
C1041: x34+x35 <=1 
C1042: x34+x37 <=1 
C1043: x34+x40 <=1 
C1044: x34+x41 <=1 
C1045: x34+x42 <=1 
C1046: x34+x46-y34_46 <=1 
C1047: x34+x47-y34_47 <=1 
C1048: x34+x48 <=1 
C1049: x34+x49-y34_49 <=1 
C1050: x34+x51-y34_51 <=1 
C1051: x34+x52 <=1 
C1052: x34+x58 <=1 
C1053: x34+x61-y34_61 <=1 
C1054: x34+x62-y34_62 <=1 
C1055: x34+x64 <=1 
C1056: x34+x65-y34_65 <=1 
C1057: x34+x66 <=1 
C1058: x34+x67 <=1 
C1059: x35+x36-y35_36 <=1 
C1060: x35+x37-y35_37 <=1 
C1061: x35+x38-y35_38 <=1 
C1062: x35+x39 <=1 
C1063: x35+x47-y35_47 <=1 
C1064: x35+x48 <=1 
C1065: x35+x50-y35_50 <=1 
C1066: x35+x53 <=1 
C1067: x35+x55-y35_55 <=1 
C1068: x35+x57-y35_57 <=1 
C1069: x35+x58-y35_58 <=1 
C1070: x35+x61 <=1 
C1071: x35+x62-y35_62 <=1 
C1072: x35+x63 <=1 
C1073: x35+x64 <=1 
C1074: x35+x65 <=1 
C1075: x35+x66-y35_66 <=1 
C1076: x35+x67-y35_67 <=1 
C1077: x36+x38 <=1 
C1078: x36+x42 <=1 
C1079: x36+x43 <=1 
C1080: x36+x47-y36_47 <=1 
C1081: x36+x49-y36_49 <=1 
C1082: x36+x50-y36_50 <=1 
C1083: x36+x52-y36_52 <=1 
C1084: x36+x53-y36_53 <=1 
C1085: x36+x55 <=1 
C1086: x36+x56 <=1 
C1087: x36+x57 <=1 
C1088: x36+x58-y36_58 <=1 
C1089: x36+x62 <=1 
C1090: x36+x65 <=1 
C1091: x36+x67-y36_67 <=1 
C1092: x37+x38 <=1 
C1093: x37+x39 <=1 
C1094: x37+x40-y37_40 <=1 
C1095: x37+x41-y37_41 <=1 
C1096: x37+x44-y37_44 <=1 
C1097: x37+x46 <=1 
C1098: x37+x47-y37_47 <=1 
C1099: x37+x48 <=1 
C1100: x37+x49-y37_49 <=1 
C1101: x37+x50-y37_50 <=1 
C1102: x37+x51 <=1 
C1103: x37+x52-y37_52 <=1 
C1104: x37+x53 <=1 
C1105: x37+x54 <=1 
C1106: x37+x55-y37_55 <=1 
C1107: x37+x56-y37_56 <=1 
C1108: x37+x57 <=1 
C1109: x37+x59 <=1 
C1110: x37+x61 <=1 
C1111: x37+x62-y37_62 <=1 
C1112: x37+x63-y37_63 <=1 
C1113: x37+x64 <=1 
C1114: x37+x65 <=1 
C1115: x37+x66-y37_66 <=1 
C1116: x37+x67 <=1 
C1117: x38+x39-y38_39 <=1 
C1118: x38+x40-y38_40 <=1 
C1119: x38+x47 <=1 
C1120: x38+x48-y38_48 <=1 
C1121: x38+x49 <=1 
C1122: x38+x50 <=1 
C1123: x38+x52-y38_52 <=1 
C1124: x38+x53 <=1 
C1125: x38+x55-y38_55 <=1 
C1126: x38+x56 <=1 
C1127: x38+x59-y38_59 <=1 
C1128: x38+x60 <=1 
C1129: x38+x62 <=1 
C1130: x38+x63 <=1 
C1131: x38+x64 <=1 
C1132: x38+x65 <=1 
C1133: x39+x43-y39_43 <=1 
C1134: x39+x44 <=1 
C1135: x39+x45 <=1 
C1136: x39+x46-y39_46 <=1 
C1137: x39+x48 <=1 
C1138: x39+x50-y39_50 <=1 
C1139: x39+x53 <=1 
C1140: x39+x54-y39_54 <=1 
C1141: x39+x55-y39_55 <=1 
C1142: x39+x56 <=1 
C1143: x39+x58-y39_58 <=1 
C1144: x39+x60 <=1 
C1145: x39+x61 <=1 
C1146: x39+x62 <=1 
C1147: x39+x63-y39_63 <=1 
C1148: x39+x64 <=1 
C1149: x39+x65 <=1 
C1150: x40+x41-y40_41 <=1 
C1151: x40+x42 <=1 
C1152: x40+x47 <=1 
C1153: x40+x48-y40_48 <=1 
C1154: x40+x50 <=1 
C1155: x40+x51 <=1 
C1156: x40+x53-y40_53 <=1 
C1157: x40+x54 <=1 
C1158: x40+x59-y40_59 <=1 
C1159: x40+x62 <=1 
C1160: x40+x63 <=1 
C1161: x40+x64-y40_64 <=1 
C1162: x40+x65 <=1 
C1163: x41+x42 <=1 
C1164: x41+x43-y41_43 <=1 
C1165: x41+x44-y41_44 <=1 
C1166: x41+x47 <=1 
C1167: x41+x48-y41_48 <=1 
C1168: x41+x49 <=1 
C1169: x41+x50 <=1 
C1170: x41+x51-y41_51 <=1 
C1171: x41+x52-y41_52 <=1 
C1172: x41+x53 <=1 
C1173: x41+x54 <=1 
C1174: x41+x55 <=1 
C1175: x41+x57-y41_57 <=1 
C1176: x41+x58-y41_58 <=1 
C1177: x41+x59-y41_59 <=1 
C1178: x41+x61 <=1 
C1179: x41+x66-y41_66 <=1 
C1180: x42+x45-y42_45 <=1 
C1181: x42+x50 <=1 
C1182: x42+x53-y42_53 <=1 
C1183: x42+x54 <=1 
C1184: x42+x56 <=1 
C1185: x42+x58-y42_58 <=1 
C1186: x42+x61 <=1 
C1187: x42+x63 <=1 
C1188: x42+x65 <=1 
C1189: x42+x66 <=1 
C1190: x42+x67 <=1 
C1191: x43+x44 <=1 
C1192: x43+x46-y43_46 <=1 
C1193: x43+x47 <=1 
C1194: x43+x48-y43_48 <=1 
C1195: x43+x49-y43_49 <=1 
C1196: x43+x51 <=1 
C1197: x43+x52-y43_52 <=1 
C1198: x43+x54-y43_54 <=1 
C1199: x43+x55 <=1 
C1200: x43+x57-y43_57 <=1 
C1201: x43+x58-y43_58 <=1 
C1202: x43+x59-y43_59 <=1 
C1203: x43+x60-y43_60 <=1 
C1204: x43+x61-y43_61 <=1 
C1205: x43+x63-y43_63 <=1 
C1206: x43+x65-y43_65 <=1 
C1207: x43+x66-y43_66 <=1 
C1208: x43+x67 <=1 
C1209: x44+x45 <=1 
C1210: x44+x46-y44_46 <=1 
C1211: x44+x47 <=1 
C1212: x44+x49 <=1 
C1213: x44+x50-y44_50 <=1 
C1214: x44+x51 <=1 
C1215: x44+x52 <=1 
C1216: x44+x55-y44_55 <=1 
C1217: x44+x61-y44_61 <=1 
C1218: x44+x63-y44_63 <=1 
C1219: x44+x66 <=1 
C1220: x45+x47 <=1 
C1221: x45+x48 <=1 
C1222: x45+x52 <=1 
C1223: x45+x53 <=1 
C1224: x45+x54-y45_54 <=1 
C1225: x45+x55 <=1 
C1226: x45+x57-y45_57 <=1 
C1227: x45+x58-y45_58 <=1 
C1228: x45+x59 <=1 
C1229: x45+x61-y45_61 <=1 
C1230: x45+x62 <=1 
C1231: x45+x63-y45_63 <=1 
C1232: x45+x65-y45_65 <=1 
C1233: x45+x66-y45_66 <=1 
C1234: x45+x67 <=1 
C1235: x46+x47-y46_47 <=1 
C1236: x46+x50 <=1 
C1237: x46+x55-y46_55 <=1 
C1238: x46+x57-y46_57 <=1 
C1239: x46+x58 <=1 
C1240: x46+x59-y46_59 <=1 
C1241: x46+x60 <=1 
C1242: x46+x61-y46_61 <=1 
C1243: x46+x62-y46_62 <=1 
C1244: x46+x66 <=1 
C1245: x46+x67 <=1 
C1246: x47+x48 <=1 
C1247: x47+x52 <=1 
C1248: x47+x53 <=1 
C1249: x47+x55 <=1 
C1250: x47+x56 <=1 
C1251: x47+x57-y47_57 <=1 
C1252: x47+x62-y47_62 <=1 
C1253: x47+x63-y47_63 <=1 
C1254: x47+x64 <=1 
C1255: x47+x65 <=1 
C1256: x48+x53-y48_53 <=1 
C1257: x48+x54 <=1 
C1258: x48+x56-y48_56 <=1 
C1259: x48+x60-y48_60 <=1 
C1260: x48+x62 <=1 
C1261: x48+x65 <=1 
C1262: x48+x67-y48_67 <=1 
C1263: x49+x50-y49_50 <=1 
C1264: x49+x51-y49_51 <=1 
C1265: x49+x53-y49_53 <=1 
C1266: x49+x56 <=1 
C1267: x49+x58-y49_58 <=1 
C1268: x49+x61-y49_61 <=1 
C1269: x49+x66-y49_66 <=1 
C1270: x49+x67 <=1 
C1271: x50+x51-y50_51 <=1 
C1272: x50+x52 <=1 
C1273: x50+x53-y50_53 <=1 
C1274: x50+x54 <=1 
C1275: x50+x57 <=1 
C1276: x50+x58 <=1 
C1277: x50+x59-y50_59 <=1 
C1278: x50+x63 <=1 
C1279: x50+x65-y50_65 <=1 
C1280: x50+x67-y50_67 <=1 
C1281: x51+x54-y51_54 <=1 
C1282: x51+x57-y51_57 <=1 
C1283: x51+x59-y51_59 <=1 
C1284: x51+x61 <=1 
C1285: x51+x65-y51_65 <=1 
C1286: x51+x66 <=1 
C1287: x51+x67 <=1 
C1288: x52+x53-y52_53 <=1 
C1289: x52+x54-y52_54 <=1 
C1290: x52+x56 <=1 
C1291: x52+x57 <=1 
C1292: x52+x59-y52_59 <=1 
C1293: x52+x60-y52_60 <=1 
C1294: x52+x63 <=1 
C1295: x52+x64-y52_64 <=1 
C1296: x52+x65-y52_65 <=1 
C1297: x52+x66 <=1 
C1298: x53+x57 <=1 
C1299: x53+x59-y53_59 <=1 
C1300: x53+x60 <=1 
C1301: x53+x63 <=1 
C1302: x53+x65-y53_65 <=1 
C1303: x53+x66 <=1 
C1304: x54+x57 <=1 
C1305: x54+x58 <=1 
C1306: x54+x60-y54_60 <=1 
C1307: x54+x63-y54_63 <=1 
C1308: x54+x66-y54_66 <=1 
C1309: x55+x56-y55_56 <=1 
C1310: x55+x59 <=1 
C1311: x55+x60 <=1 
C1312: x55+x61-y55_61 <=1 
C1313: x55+x62 <=1 
C1314: x55+x63-y55_63 <=1 
C1315: x55+x64-y55_64 <=1 
C1316: x55+x66-y55_66 <=1 
C1317: x55+x67 <=1 
C1318: x56+x58-y56_58 <=1 
C1319: x56+x59-y56_59 <=1 
C1320: x56+x60 <=1 
C1321: x56+x64 <=1 
C1322: x56+x65 <=1 
C1323: x56+x66-y56_66 <=1 
C1324: x56+x67-y56_67 <=1 
C1325: x57+x58 <=1 
C1326: x57+x59 <=1 
C1327: x57+x60-y57_60 <=1 
C1328: x57+x62-y57_62 <=1 
C1329: x57+x63 <=1 
C1330: x57+x65 <=1 
C1331: x57+x67-y57_67 <=1 
C1332: x58+x59 <=1 
C1333: x58+x63 <=1 
C1334: x58+x64-y58_64 <=1 
C1335: x58+x65 <=1 
C1336: x58+x66 <=1 
C1337: x59+x60-y59_60 <=1 
C1338: x59+x61 <=1 
C1339: x59+x62-y59_62 <=1 
C1340: x59+x63 <=1 
C1341: x59+x65 <=1 
C1342: x59+x66 <=1 
C1343: x60+x61-y60_61 <=1 
C1344: x60+x63-y60_63 <=1 
C1345: x60+x64-y60_64 <=1 
C1346: x60+x66 <=1 
C1347: x60+x67-y60_67 <=1 
C1348: x61+x62 <=1 
C1349: x61+x63 <=1 
C1350: x61+x64-y61_64 <=1 
C1351: x61+x65-y61_65 <=1 
C1352: x61+x66 <=1 
C1353: x61+x67-y61_67 <=1 
C1354: x62+x63 <=1 
C1355: x62+x64 <=1 
C1356: x62+x65-y62_65 <=1 
C1357: x62+x66-y62_66 <=1 
C1358: x63+x66 <=1 
C1359: x64+x67 <=1 
C1360: x65+x67 <=1 

binary
x0
x1
x2
x3
x4
x5
x6
x7
x8
x9
x10
x11
x12
x13
x14
x15
x16
x17
x18
x19
x20
x21
x22
x23
x24
x25
x26
x27
x28
x29
x30
x31
x32
x33
x34
x35
x36
x37
x38
x39
x40
x41
x42
x43
x44
x45
x46
x47
x48
x49
x50
x51
x52
x53
x54
x55
x56
x57
x58
x59
x60
x61
x62
x63
x64
x65
x66
x67
