problem_generation/data/GISP/train/er_n=68_m=1360_p=0.60_SET2_setparam=100.00_alpha=0.50_826.sol
objective value:                                 1268
x1                                                  1 	(obj:100)
x8                                                  1 	(obj:100)
x9                                                  1 	(obj:100)
x12                                                 1 	(obj:100)
x21                                                 1 	(obj:100)
x27                                                 1 	(obj:100)
x42                                                 1 	(obj:100)
x43                                                 1 	(obj:100)
x49                                                 1 	(obj:100)
x52                                                 1 	(obj:100)
x53                                                 1 	(obj:100)
x58                                                 1 	(obj:100)
x62                                                 1 	(obj:100)
y8_9                                                1 	(obj:-1)
y9_58                                               1 	(obj:-1)
y1_53                                               1 	(obj:-1)
y12_58                                              1 	(obj:-1)
y42_58                                              1 	(obj:-1)
y12_53                                              1 	(obj:-1)
y12_62                                              1 	(obj:-1)
y43_49                                              1 	(obj:-1)
y1_43                                               1 	(obj:-1)
y43_58                                              1 	(obj:-1)
y1_52                                               1 	(obj:-1)
y42_53                                              1 	(obj:-1)
y27_58                                              1 	(obj:-1)
y12_42                                              1 	(obj:-1)
y8_49                                               1 	(obj:-1)
y1_9                                                1 	(obj:-1)
y21_62                                              1 	(obj:-1)
y43_52                                              1 	(obj:-1)
y21_42                                              1 	(obj:-1)
y8_58                                               1 	(obj:-1)
y1_27                                               1 	(obj:-1)
y49_58                                              1 	(obj:-1)
y1_49                                               1 	(obj:-1)
y1_58                                               1 	(obj:-1)
y49_53                                              1 	(obj:-1)
y12_27                                              1 	(obj:-1)
y9_12                                               1 	(obj:-1)
y8_43                                               1 	(obj:-1)
y8_52                                               1 	(obj:-1)
y1_21                                               1 	(obj:-1)
y52_53                                              1 	(obj:-1)
y8_42                                               1 	(obj:-1)
